This is Ipopt version 3.10.1, running with linear solver mumps.

Number of nonzeros in equality constraint Jacobian...:      141
Number of nonzeros in inequality constraint Jacobian.:        0
Number of nonzeros in Lagrangian Hessian.............:     2019

Total number of variables............................:       72
                     variables with only lower bounds:        0
                variables with lower and upper bounds:       72
                     variables with only upper bounds:        0
Total number of equality constraints.................:       47
Total number of inequality constraints...............:        0
        inequality constraints with only lower bounds:        0
   inequality constraints with lower and upper bounds:        0
        inequality constraints with only upper bounds:        0

iter    objective    inf_pr   inf_du lg(mu)  ||d||  lg(rg) alpha_du alpha_pr  ls
   0 -1.1412156e-03 1.00e-02 3.90e-03  -1.0 0.00e+00    -  0.00e+00 0.00e+00   0
   1 -1.1627587e-03 2.46e-10 1.48e-03  -1.7 2.07e-02    -  9.88e-01 1.00e+00h  1
   2 -1.1694443e-03 1.33e-15 3.47e-03  -2.5 3.76e-02    -  9.74e-01 1.00e+00f  1
   3 -1.2494364e-03 2.22e-16 2.97e-04  -3.8 4.03e-02    -  9.76e-01 1.00e+00f  1
   4 -1.7356267e-03 4.90e-13 7.13e-04  -5.7 5.87e-02  -2.0 8.83e-01 1.00e+00f  1
   5 -2.1223646e-03 2.22e-16 1.01e-03  -5.7 3.45e-02  -1.6 1.00e+00 1.00e+00f  1
   6 -2.8300254e-03 2.22e-16 1.38e-03  -5.7 6.57e-01  -2.1 4.04e-01 6.62e-02f  1
   7 -3.8638955e-03 5.88e-13 2.05e-03  -5.7 8.66e-02  -1.6 1.00e+00 5.62e-01f  1
   8 -4.2286380e-03 3.66e-13 2.06e-03  -5.7 3.57e-02  -1.2 1.00e+00 3.77e-01f  1
   9 -6.1801093e-03 1.26e-12 1.16e-02  -5.7 3.88e-01  -1.7 1.00e+00 1.35e-01f  1
iter    objective    inf_pr   inf_du lg(mu)  ||d||  lg(rg) alpha_du alpha_pr  ls
  10 -7.6513650e-03 8.13e-13 4.63e-03  -5.7 8.86e-02  -1.3 1.00e+00 3.52e-01f  1
  11 -7.6463047e-03 8.13e-13 4.37e-03  -5.7 3.96e-01  -1.7 7.50e-02 3.39e-04f 12
  12 -7.6361060e-03 8.07e-13 2.80e-02  -5.7 1.80e+01  -1.3 1.55e-02 3.52e-05f 11
  13 -6.3213477e-03 3.35e-13 1.71e-02  -5.7 4.30e-01  -1.8 1.94e-01 5.85e-01h  1
  14 -6.5333700e-03 5.32e-13 1.62e-02  -5.7 1.19e-01  -1.4 5.00e-02 4.39e-02f  1
  15 -6.6537033e-03 8.10e-13 9.86e-03  -5.7 3.89e-02  -0.9 1.00e+00 9.83e-02f  3
  16 -9.6337711e-03 5.91e-13 1.01e-02  -5.7 2.04e-01  -1.4 2.33e-01 2.71e-01f  1
  17 -1.0438042e-02 4.94e-13 9.57e-03  -5.7 6.85e-02  -1.0 1.00e+00 1.64e-01f  1
  18 -1.0432357e-02 4.94e-13 9.57e-03  -5.7 7.73e-01  -1.5 5.34e-02 9.86e-05f 10
  19 -1.0420065e-02 4.83e-13 9.57e-03  -5.7 4.14e+01  -1.0 1.11e-03 2.89e-05f  9
iter    objective    inf_pr   inf_du lg(mu)  ||d||  lg(rg) alpha_du alpha_pr  ls
  20 -1.2008096e-02 8.65e-14 6.66e-03  -5.7 2.32e-02  -0.6 9.83e-01 8.21e-01f  1
  21 -1.4625433e-02 1.36e-12 2.08e-02  -5.7 1.60e-01  -1.1 1.00e+00 1.60e-01f  1
  22 -1.6246903e-02 2.02e-12 1.04e-02  -5.7 4.09e-02  -0.7 1.00e+00 3.75e-01f  1
  23 -1.8539160e-02 1.85e-12 5.61e-02  -5.7 2.58e-01  -1.1 1.00e+00 8.73e-02f  1
  24 -2.4483383e-02 8.35e-14 1.13e-02  -5.7 5.70e-02  -0.7 1.00e+00 9.55e-01f  1
  25 -2.7753204e-02 1.74e-12 1.26e-02  -5.7 1.99e+00  -1.2 4.15e-02 1.27e-02f  1
  26 -3.2178328e-02 1.26e-12 2.60e-02  -5.7 1.00e-01  -0.8 1.00e+00 2.74e-01f  1
  27 -3.8209412e-02 2.22e-16 1.55e-02  -5.7 3.17e-02  -0.3 1.00e+00 1.00e+00f  1
  28 -4.5016694e-02 4.44e-16 5.25e-02  -5.7 2.34e-01  -0.8 7.51e-01 1.35e-01f  1
  29 -4.7737042e-02 4.44e-16 6.33e-02  -5.7 2.98e+00  -1.3 3.96e-02 1.46e-02f  1
iter    objective    inf_pr   inf_du lg(mu)  ||d||  lg(rg) alpha_du alpha_pr  ls
  30 -5.2763933e-02 3.59e-12 6.31e-02  -5.7 2.13e-01  -0.9 3.85e-01 1.12e-01f  1
  31 -5.8008317e-02 1.82e-12 2.60e-02  -5.7 5.50e-02  -0.4 1.00e+00 4.94e-01f  1
  32 -7.2291792e-02 1.39e-12 4.35e-02  -5.7 2.82e-01  -0.9 5.69e-01 2.36e-01f  1
  33 -8.7464171e-02 9.63e-14 2.47e-02  -5.7 7.21e-02  -0.5 1.00e+00 9.31e-01f  1
  34 -9.3954678e-02 2.71e-14 2.22e-02  -5.7 2.41e-02  -0.1 7.20e-01 7.18e-01f  1
  35 -1.0014733e-01 2.24e-14 2.42e-02  -5.7 1.10e-01  -0.5 1.30e-01 1.69e-01f  1
  36 -1.0014513e-01 2.25e-14 2.42e-02  -5.7 1.62e+00  -1.0 1.15e-03 5.30e-06f 14
  37 -1.0013417e-01 2.25e-14 3.26e-02  -5.7 4.18e+01  -0.6 1.41e-03 4.46e-06f  8
  38 -8.5660110e-02 2.09e-14 3.62e-02  -5.7 9.65e-01  -1.1 2.80e-02 7.51e-02h  1
  39 -8.7146638e-02 2.00e-14 3.56e-02  -5.7 1.45e-01  -0.6 2.91e-01 4.21e-02f  1
iter    objective    inf_pr   inf_du lg(mu)  ||d||  lg(rg) alpha_du alpha_pr  ls
  40 -7.3236475e-02 1.95e-14 4.84e-02  -5.7 5.47e+00  -1.1 8.81e-04 1.89e-02h  1
  41 -8.6404999e-02 5.88e-15 5.33e-02  -5.7 7.55e-02  -0.7 8.15e-03 7.01e-01f  1
  42 -9.3444912e-02 5.55e-16 3.04e-02  -5.7 2.89e-02  -0.3 1.56e-01 9.24e-01f  1
  43 -1.2977179e-01 2.51e-11 9.81e-02  -5.7 1.17e-01  -0.7 3.37e-02 9.34e-01f  1
  44 -1.3015430e-01 2.33e-11 9.54e-02  -5.7 1.53e-01  -0.3 1.80e-03 6.45e-02f  1
  45 -1.3278756e-01 2.32e-11 7.18e-02  -5.7 4.89e+00  -0.8 1.28e-02 1.53e-03f  1
  46 -1.3817977e-01 2.00e-11 7.82e-02  -5.7 8.35e-02  -0.4 3.03e-01 1.40e-01f  1
  47 -1.4303099e-01 1.99e-11 7.84e-02  -5.7 6.16e+00  -0.8 2.22e-03 2.37e-03f  1
  48 -1.6550096e-01 1.74e-11 5.83e-02  -5.7 1.04e-01  -0.4 2.59e-01 4.99e-01f  1
  49 -1.6549344e-01 1.74e-11 6.78e-02  -5.7 5.92e-01  -0.9 1.01e-01 3.35e-05f  7
iter    objective    inf_pr   inf_du lg(mu)  ||d||  lg(rg) alpha_du alpha_pr  ls
  50 -1.8688010e-01 1.45e-11 1.04e-01  -5.7 2.33e-01  -0.5 1.14e-02 1.66e-01f  1
  51 -1.8687500e-01 1.45e-11 1.04e-01  -5.7 4.25e-01  -0.9 5.90e-04 2.83e-05f  9
  52 -2.0522128e-01 1.39e-11 1.97e-01  -5.7 6.96e-01  -0.5 8.02e-03 4.17e-02f  1
  53 -2.2732124e-01 9.66e-12 1.53e-01  -5.7 9.24e-02  -0.1 5.50e-02 3.06e-01f  1
  54 -2.3661179e-01 6.39e-12 6.52e-02  -5.7 3.15e-02   0.3 1.00e+00 3.38e-01f  1
  55 -2.6345107e-01 5.31e-12 1.03e-01  -5.7 1.65e-01  -0.1 9.26e-02 1.70e-01f  1
  56 -2.7555713e-01 4.31e-11 8.63e-02  -5.7 4.20e-02   0.3 3.09e-01 4.09e-01f  1
  57 -3.4500499e-01 3.19e-11 3.25e-01  -5.7 2.54e-01  -0.2 1.00e+00 2.60e-01f  1
  58 -3.5395556e-01 4.36e-11 1.94e-01  -5.7 7.83e-02   0.2 1.76e-01 9.32e-02f  1
  59 -4.5239543e-01 6.30e-11 8.52e-01  -5.7 5.83e-01  -0.2 1.00e+00 1.15e-01f  1
iter    objective    inf_pr   inf_du lg(mu)  ||d||  lg(rg) alpha_du alpha_pr  ls
  60 -4.5844128e-01 6.06e-11 7.01e-01  -5.7 1.11e-01   0.2 1.00e+00 3.82e-02f  1
  61 -4.5368342e-01 5.98e-11 6.34e-01  -5.7 3.84e-01    -  7.51e-02 1.21e-02h  1
  62 -5.1471746e-01 5.59e-11 5.90e-01  -5.7 6.78e-01  -0.3 6.75e-02 6.60e-02f  1
  63 -5.1257536e-01 5.56e-11 5.84e-01  -5.7 4.11e-01    -  7.47e-03 4.52e-03h  1
  64 -5.1261198e-01 5.56e-11 6.09e-01  -5.7 1.26e-01   0.1 1.00e+00 1.95e-04f  1
  65 -5.1260996e-01 5.56e-11 5.93e-01  -5.7 3.79e-01    -  1.85e-02 3.81e-06f 19
  66 -5.2509928e-01 5.83e-11 8.64e-01  -5.7 5.30e-01  -0.3 4.10e-01 1.81e-02f  1
  67 -5.2090977e-01 5.82e-11 8.70e-01  -5.7 4.77e+00    -  1.73e-05 1.39e-03h  1
  68 -5.2089606e-01 5.82e-11 8.58e-01  -5.7 3.19e+00    -  1.39e-04 6.07e-06f  8
  69 -5.2101983e-01 5.82e-11 9.49e-01  -5.7 1.66e+00  -0.8 9.75e-02 9.21e-05f  1
iter    objective    inf_pr   inf_du lg(mu)  ||d||  lg(rg) alpha_du alpha_pr  ls
  70 -5.2101909e-01 5.82e-11 9.18e-01  -5.7 5.14e+00    -  3.39e-03 2.30e-07f 13
  71 -5.2099356e-01 5.82e-11 8.40e-01  -5.7 5.69e-01  -1.3 6.37e-06 1.10e-04f  1
  72 -5.1687783e-01 5.81e-11 7.34e-01  -5.7 5.11e+00    -  2.23e-02 1.29e-03h  3
  73 -3.9228227e-01 5.58e-11 8.21e-01  -5.7 5.10e+00    -  8.28e-03 3.99e-02h  1
  74 -2.3647863e-01 5.52e-11 9.59e-01  -5.7 2.57e+01  -1.8 1.77e-03 1.07e-02h  2
  75 -1.5805142e-01 5.17e-11 1.02e+00  -5.7 2.15e+00  -2.3 1.06e-02 6.37e-02h  2
  76 -1.0444604e-01 3.40e-11 9.04e-01  -5.7 4.41e-01  -2.7 5.08e-02 3.43e-01h  2
  77 -1.0168915e-01 3.32e-11 7.58e-01  -5.7 4.20e-01    -  1.98e-01 2.42e-02h  6
  78 -1.0091860e-01 3.29e-11 5.88e-01  -5.7 4.18e-01  -3.2 2.91e-01 6.72e-03h  6
  79 -8.3771245e-02 2.77e-11 3.67e-01  -5.7 4.19e-01  -2.8 6.06e-01 1.58e-01h  1
iter    objective    inf_pr   inf_du lg(mu)  ||d||  lg(rg) alpha_du alpha_pr  ls
  80 -9.4102874e-02 2.40e-11 3.08e-01  -5.7 1.69e+00    -  5.61e-02 1.36e-01f  1
  81 -1.9759451e-01 2.22e-16 2.42e-01  -5.7 2.39e-01  -0.6 2.51e-01 1.00e+00f  1
  82 -1.0373481e-01 2.22e-16 2.15e-01  -5.7 1.05e+00  -1.0 8.14e-02 2.20e-01h  1
  83 -1.0373175e-01 2.22e-16 2.40e-01  -5.7 8.29e+00    -  1.37e-02 1.98e-06f 15
  84 -1.0373184e-01 2.22e-16 2.27e-01  -5.7 3.22e+00  -1.5 1.81e-02 1.32e-07f 17
  85 -1.0218112e-01 2.22e-16 2.26e-01  -5.7 2.27e+00    -  3.10e-03 3.10e-03s 14
  86 -1.0287687e-01 6.91e-13 2.25e-01  -5.7 6.73e-01  -1.1 4.93e-03 4.93e-03s 14
  87 -1.0394951e-01 1.24e-12 2.25e-01  -5.7 4.56e+00  -1.6 1.09e-03 1.09e-03s 14
  88 -1.0355831e-01 1.24e-12 2.25e-01  -5.7 2.04e+00    -  8.49e-04 8.49e-04s 14
  89 -9.5197349e-02 1.23e-12 2.23e-01  -5.7 4.82e+00  -2.0 8.03e-03 8.03e-03s 14
iter    objective    inf_pr   inf_du lg(mu)  ||d||  lg(rg) alpha_du alpha_pr  ls
  90 -8.4749861e-02 1.21e-12 2.19e-01  -5.7 2.77e+00  -2.5 1.77e-02 1.77e-02s 14
  91 -9.5303366e-02 1.14e-12 2.07e-01  -5.7 8.77e-01  -1.2 5.86e-02 5.86e-02s 14
  92 -9.4129150e-02 1.14e-12 2.06e-01  -5.7 2.28e+00    -  2.37e-03 2.37e-03s 14
  93 -9.4529793e-02 1.41e-12 2.06e-01  -5.7 9.38e+00  -1.7 2.02e-04 2.02e-04s 14
  94 -9.0420336e-02 1.41e-12 2.05e-01  -5.7 4.06e+00  -2.1 4.74e-03 4.74e-03s 14
  95 -7.9354963e-02 1.37e-12 2.01e-01  -5.7 2.27e+00    -  2.30e-02 2.30e-02s 14
Restoration phase is called at point that is almost feasible,
  with constraint violation 2.574807e-11. Abort.

Number of Iterations....: 95

                                   (scaled)                 (unscaled)
Objective...............:  -7.9354962838823956e-02   -7.9354962838823956e-02
Dual infeasibility......:   2.0061109486561821e-01    2.0061109486561821e-01
Constraint violation....:   1.3747891713933313e-12    1.3747891713933313e-12
Complementarity.........:   1.6070770486132053e-05    1.6070770486132053e-05
Overall NLP error.......:   2.0061109486561821e-01    2.0061109486561821e-01


Number of objective function evaluations             = 273
Number of objective gradient evaluations             = 96
Number of equality constraint evaluations            = 273
Number of inequality constraint evaluations          = 0
Number of equality constraint Jacobian evaluations   = 1
Number of inequality constraint Jacobian evaluations = 0
Number of Lagrangian Hessian evaluations             = 96
Total CPU secs in IPOPT (w/o function evaluations)   =      0.200
Total CPU secs in NLP function evaluations           =      2.060

EXIT: Restoration Failed!
